#Need one input parameter, -v SEED $RANDOM -v SEED2 $RANDOM -v SEED3 $RANDOM 
#force field parameters : https://pubs.acs.org/doi/pdf/10.1021/jp809974e 
include params.lmp

processors ${px} ${py} ${pz}
# processors 2 2 1

log min.${label}.lammps

# Basic Specification
lattice sc $a

# Atom Style Specification
molecule h2o tip4p.mol
molecule ozone ozone.mol offset 3 2 2 1 0
atom_style full

# Box Creation
region box block -${Lx} ${Lx} -${Ly} ${Ly} -${Lz} ${Lz} units lattice
create_box 8 box bond/types 3 angle/types 3 improper/types 1 &
	   extra/bond/per/atom 3 extra/angle/per/atom 3 &
	   extra/special/per/atom 3 extra/improper/per/atom 1

# Atomic Masses
mass	  1 16.00     # ODw (15.994)
mass	  2 1.000     # H (1.008)
mass	  3 0.001     # M
mass      4 16.00     # O3c
mass      5 16.00     # O3s
mass	  6 22.9898   # Na+ 23.00
mass	  7 126.90    # I-
mass      8 79.900    # Br-

# Pair Coefficients
# Soft pair_style to unoverlap atoms
pair_style soft 2.0 ## 4.0
pair_coeff * * 1.0

# Bonded Interactions
# Stiff Constraints to Fix Geometry
bond_style harmonic
angle_style harmonic
improper_style harmonic

# Bond & Angle Coefficients
bond_coeff     1 10000  0.9572
bond_coeff     2 10000  0.24034
bond_coeff     3 10000  1.278

angle_coeff    1 10000  104.52
angle_coeff    2 10000  52.26
angle_coeff    3 10000  116.8

improper_coeff 1 10000  0

# Create Slab
region bottom block EDGE EDGE EDGE EDGE -${Lzcut} EDGE units lattice 
region middle block EDGE EDGE EDGE EDGE -${Lzcut} ${Lzcut} units lattice 
region top block EDGE EDGE EDGE EDGE ${Lzcut} EDGE units lattice

# create_atoms  0 region middle mol h2o $S
create_atoms  0 random ${nParticle} $S middle mol h2o $S
create_atoms  0 single ${inX} ${inY} ${inZ} mol ozone $S units lattice
create_atoms  6 random ${nIonNa} $S middle
create_atoms  7 random ${nIonI} $S middle
create_atoms  8 random ${nIonCl} $S middle

print "O3 at: ($(v_inX), $(v_inY), $(v_inZ))"

set type 6 charge 1.0
set type 7 charge -1.0
set type 8 charge -1.0

# ==========================================================================
# Output Specification
# ==========================================================================
neigh_modify every 1 delay 0 check yes

thermo_style custom step pe ke density fmax fnorm
thermo ${ThermoEvery}
dump 1 all custom 100 min.lammpstrj x y z vx vy vz fx fy fz 

min_style quickmin
min_modify norm max
timestep ${dtMin}

minimize 0 0 50000 100000

pair_style lj/cut/coul/long ${coulCut}
pair_coeff 2 2 0 0 ## i j epsilon(kcal/mol) sigma(E-10m)
pair_coeff 1 1 0.15535 3.16600
pair_coeff 3 3 0 0
pair_coeff 4 4 0.210 2.95956
pair_coeff 5 5 0.210 2.95956
pair_coeff 6 6 0.1000 2.2718
# pair_coeff 7 7 0.1000 4.4010
pair_coeff 7 7 0.1000 5.1245
pair_coeff 8 8 0.1000 4.4010

pair_modify mix arithmetic
kspace_style pppm ${pppmCut}
# kspace_modify slab 3.0
#
min_style quickmin
min_modify norm max
timestep ${dtMin}
minimize 0 5 100000 100000

group water type 1 2 3
group o3    type 4 5
group ions  type 6 7 8

set group water vx 0.0 vy 0.0 vz 0.0
set group o3    vx 0.0 vy 0.0 vz 0.0
set group ions  vx 0.0 vy 0.0 vz 0.0

reset_mol_ids all

# fix freeze all setforce 0.0 0.0 0.0
fix 1 all recenter 0.0 0.0 0.0
run 0

# ==========================================================================
# Write Output Data
# ==========================================================================

write_data data.${label}.tip4p.${location}.min ## pair ij ## include pair coefficients
