# LAMMPS Force Field File
# Generated by ForceField.py

# FF References:
#      ODw: https://doi.org/10.1016/j.cplett.2005.10.135
#      HDw: https://doi.org/10.1016/j.cplett.2005.10.135
#      MDw: https://doi.org/10.1016/j.cplett.2005.10.135
#      O3c: https://pubs.acs.org/doi/pdf/10.1021/jp051361%2B
#      O3s: https://pubs.acs.org/doi/pdf/10.1021/jp051361%2B
#      polNa: https://pubs.acs.org/doi/pdf/10.1021/jp021871t
#      polI: https://pubs.acs.org/doi/pdf/10.1021/jp021871t
#      polCl: https://pubs.acs.org/doi/pdf/10.1021/jp021871t

fix drude all drude C N N C C C C C D D D D D D 
pair_style lj/cut/thole/long 2.6 12.0
kspace_style pppm 1.0e-5

# Masses:
mass  1 15.200 # ODwC
mass  2 1.000 # HDw
mass  3 0.001 # MDw
mass  4 15.200 # O3cC
mass  5 15.200 # O3sC
mass  6 22.200 # polNaC
mass  7 126.200 # polIC
mass  8 34.200 # polClC
mass  9 0.800 # ODwD
mass 10 0.800 # O3cD
mass 11 0.800 # O3sD
mass 12 0.800 # polNaD
mass 13 0.800 # polID
mass 14 0.800 # polClD

# Pair Potential Coefficients (i j epsilon_ij sigma_ij alpha_ij)
pair_coeff  1  1  0.18985  3.18395  0.97825 # ODwC-ODwC
pair_coeff  1  2  0.00000  1.59197  0.00000 # ODwC-HDw
pair_coeff  1  3  0.00000  1.59197  0.00000 # ODwC-MDw
pair_coeff  1  4  0.16326  3.19381  0.96402 # ODwC-O3cC
pair_coeff  1  5  0.16326  3.19381  0.96402 # ODwC-O3sC
pair_coeff  1  6  0.13292  2.72788  0.48454 # ODwC-polNaC
pair_coeff  1  7  0.13706  4.15423  2.60182 # ODwC-polIC
pair_coeff  1  8  0.13466  3.76133  1.89993 # ODwC-polClC
pair_coeff  1  9  0.01055  3.18395  0.97825 # ODwC-ODwS
pair_coeff  1 10  0.00907  3.19381  0.96402 # ODwC-O3cS
pair_coeff  1 11  0.00907  3.19381  0.96402 # ODwC-O3sS
pair_coeff  1 12  0.00505  2.72788  0.48454 # ODwC-polNaS
pair_coeff  1 13  0.00091  4.15423  2.60182 # ODwC-polIS
pair_coeff  1 14  0.00332  3.76133  1.89993 # ODwC-polClS
pair_coeff  2  2  0.00000  0.00000  0.00000 # HDw-HDw
pair_coeff  2  3  0.00000  0.00000  0.00000 # HDw-MDw
pair_coeff  2  4  0.00000  1.60183  0.00000 # HDw-O3cC
pair_coeff  2  5  0.00000  1.60183  0.00000 # HDw-O3sC
pair_coeff  2  6  0.00000  1.13590  0.00000 # HDw-polNaC
pair_coeff  2  7  0.00000  2.56225  0.00000 # HDw-polIC
pair_coeff  2  8  0.00000  2.16935  0.00000 # HDw-polClC
pair_coeff  2  9  0.00000  1.59197  0.00000 # HDw-ODwS
pair_coeff  2 10  0.00000  1.60183  0.00000 # HDw-O3cS
pair_coeff  2 11  0.00000  1.60183  0.00000 # HDw-O3sS
pair_coeff  2 12  0.00000  1.13590  0.00000 # HDw-polNaS
pair_coeff  2 13  0.00000  2.56225  0.00000 # HDw-polIS
pair_coeff  2 14  0.00000  2.16935  0.00000 # HDw-polClS
pair_coeff  3  3  0.00000  0.00000  0.00000 # MDw-MDw
pair_coeff  3  4  0.00000  1.60183  0.00000 # MDw-O3cC
pair_coeff  3  5  0.00000  1.60183  0.00000 # MDw-O3sC
pair_coeff  3  6  0.00000  1.13590  0.00000 # MDw-polNaC
pair_coeff  3  7  0.00000  2.56225  0.00000 # MDw-polIC
pair_coeff  3  8  0.00000  2.16935  0.00000 # MDw-polClC
pair_coeff  3  9  0.00000  1.59197  0.00000 # MDw-ODwS
pair_coeff  3 10  0.00000  1.60183  0.00000 # MDw-O3cS
pair_coeff  3 11  0.00000  1.60183  0.00000 # MDw-O3sS
pair_coeff  3 12  0.00000  1.13590  0.00000 # MDw-polNaS
pair_coeff  3 13  0.00000  2.56225  0.00000 # MDw-polIS
pair_coeff  3 14  0.00000  2.16935  0.00000 # MDw-polClS
pair_coeff  4  4  0.14040  3.20367  0.95000 # O3cC-O3cC
pair_coeff  4  5  0.14040  3.20367  0.95000 # O3cC-O3sC
pair_coeff  4  6  0.11431  2.73773  0.47749 # O3cC-polNaC
pair_coeff  4  7  0.11787  4.16409  2.56398 # O3cC-polIC
pair_coeff  4  8  0.11580  3.77119  1.87230 # O3cC-polClC
pair_coeff  4  9  0.00907  3.19381  0.96402 # O3cC-ODwS
pair_coeff  4 10  0.00780  3.20367  0.95000 # O3cC-O3cS
pair_coeff  4 11  0.00780  3.20367  0.95000 # O3cC-O3sS
pair_coeff  4 12  0.00434  2.73773  0.47749 # O3cC-polNaS
pair_coeff  4 13  0.00079  4.16409  2.56398 # O3cC-polIS
pair_coeff  4 14  0.00285  3.77119  1.87230 # O3cC-polClS
pair_coeff  5  5  0.14040  3.20367  0.95000 # O3sC-O3sC
pair_coeff  5  6  0.11431  2.73773  0.47749 # O3sC-polNaC
pair_coeff  5  7  0.11787  4.16409  2.56398 # O3sC-polIC
pair_coeff  5  8  0.11580  3.77119  1.87230 # O3sC-polClC
pair_coeff  5  9  0.00907  3.19381  0.96402 # O3sC-ODwS
pair_coeff  5 10  0.00780  3.20367  0.95000 # O3sC-O3cS
pair_coeff  5 11  0.00780  3.20367  0.95000 # O3sC-O3sS
pair_coeff  5 12  0.00434  2.73773  0.47749 # O3sC-polNaS
pair_coeff  5 13  0.00079  4.16409  2.56398 # O3sC-polIS
pair_coeff  5 14  0.00285  3.77119  1.87230 # O3sC-polClS
pair_coeff  6  6  0.09304  2.27180  0.24000 # polNaC-polNaC
pair_coeff  6  7  0.09589  3.69815  1.28872 # polNaC-polIC
pair_coeff  6  8  0.09424  3.30525  0.94106 # polNaC-polClC
pair_coeff  6  9  0.00726  2.72788  0.48454 # polNaC-ODwS
pair_coeff  6 10  0.00624  2.73773  0.47749 # polNaC-O3cS
pair_coeff  6 11  0.00624  2.73773  0.47749 # polNaC-O3sS
pair_coeff  6 12  0.00348  2.27180  0.24000 # polNaC-polNaS
pair_coeff  6 13  0.00063  3.69815  1.28872 # polNaC-polIS
pair_coeff  6 14  0.00229  3.30525  0.94106 # polNaC-polClS
pair_coeff  7  7  0.09874  5.12450  6.92000 # polIC-polIC
pair_coeff  7  8  0.09708  4.73160  5.05320 # polIC-polClC
pair_coeff  7  9  0.00726  4.15423  2.60182 # polIC-ODwS
pair_coeff  7 10  0.00624  4.16409  2.56398 # polIC-O3cS
pair_coeff  7 11  0.00624  4.16409  2.56398 # polIC-O3sS
pair_coeff  7 12  0.00348  3.69815  1.28872 # polIC-polNaS
pair_coeff  7 13  0.00063  5.12450  6.92000 # polIC-polIS
pair_coeff  7 14  0.00229  4.73160  5.05320 # polIC-polClS
pair_coeff  8  8  0.09543  4.33870  3.69000 # polClC-polClC
pair_coeff  8  9  0.00726  3.76133  1.89993 # polClC-ODwS
pair_coeff  8 10  0.00624  3.77119  1.87230 # polClC-O3cS
pair_coeff  8 11  0.00624  3.77119  1.87230 # polClC-O3sS
pair_coeff  8 12  0.00348  3.30525  0.94106 # polClC-polNaS
pair_coeff  8 13  0.00063  4.73160  5.05320 # polClC-polIS
pair_coeff  8 14  0.00229  4.33870  3.69000 # polClC-polClS
pair_coeff  9  9  0.00000  3.18395  0.97825 # ODwS-ODwS
pair_coeff  9 10  0.00000  3.19381  0.96402 # ODwS-O3cS
pair_coeff  9 11  0.00000  3.19381  0.96402 # ODwS-O3sS
pair_coeff  9 12  0.00000  2.72788  0.48454 # ODwS-polNaS
pair_coeff  9 13  0.00000  4.15423  2.60182 # ODwS-polIS
pair_coeff  9 14  0.00000  3.76133  1.89993 # ODwS-polClS
pair_coeff 10 10  0.00000  3.20367  0.95000 # O3cS-O3cS
pair_coeff 10 11  0.00000  3.20367  0.95000 # O3cS-O3sS
pair_coeff 10 12  0.00000  2.73773  0.47749 # O3cS-polNaS
pair_coeff 10 13  0.00000  4.16409  2.56398 # O3cS-polIS
pair_coeff 10 14  0.00000  3.77119  1.87230 # O3cS-polClS
pair_coeff 11 11  0.00000  3.20367  0.95000 # O3sS-O3sS
pair_coeff 11 12  0.00000  2.73773  0.47749 # O3sS-polNaS
pair_coeff 11 13  0.00000  4.16409  2.56398 # O3sS-polIS
pair_coeff 11 14  0.00000  3.77119  1.87230 # O3sS-polClS
pair_coeff 12 12  0.00000  2.27180  0.24000 # polNaS-polNaS
pair_coeff 12 13  0.00000  3.69815  1.28872 # polNaS-polIS
pair_coeff 12 14  0.00000  3.30525  0.94106 # polNaS-polClS
pair_coeff 13 13  0.00000  5.12450  6.92000 # polIS-polIS
pair_coeff 13 14  0.00000  4.73160  5.05320 # polIS-polClS
pair_coeff 14 14  0.00000  4.33870  3.69000 # polClS-polClS

